
Log started (V22.2.0.0) Tue Jun  9 08:28:35 2026

New value for time limit in seconds: 60
New value for default parallel thread count: 4
New value for mixed integer optimality gap tolerance: 0.001
New value for level of mixed integer node display: 2

Problem 'results/InstanceA1_bigm_finsteps123.lp' read.
Read time = 0.02 sec. (1.27 ticks)
Version identifier: 22.2.0.0 | 2026-05-04 | 5dff98e58
CPXPARAM_Threads                                 4
CPXPARAM_TimeLimit                               60
CPXPARAM_MIP_Tolerances_MIPGap                   0.001
Tried aggregator 2 times.
MIP Presolve eliminated 37 rows and 37 columns.
MIP Presolve modified 134871 coefficients.
Aggregator did 607 substitutions.
Reduced MIP has 12487 rows, 6601 columns, and 36804 nonzeros.
Reduced MIP has 5994 binaries, 0 generals, 0 SOSs, and 0 indicators.
Presolve time = 0.04 sec. (61.13 ticks)
Found incumbent of value 87.000000 after 0.08 sec. (114.60 ticks)
Probing time = 0.01 sec. (6.01 ticks)
Tried aggregator 1 time.
Detecting symmetries...
MIP Presolve modified 43 coefficients.
Reduced MIP has 12487 rows, 6601 columns, and 36804 nonzeros.
Reduced MIP has 5994 binaries, 0 generals, 0 SOSs, and 0 indicators.
Presolve time = 0.01 sec. (20.40 ticks)
Probing time = 0.00 sec. (5.61 ticks)
Clique table members: 2175.
MIP emphasis: balance optimality and feasibility.
MIP search method: dynamic search.
Parallel mode: deterministic, using up to 4 threads.
Root relaxation solution time = 0.09 sec. (697.34 ticks)

        Nodes                                         Cuts/
   Node  Left     Objective  IInf  Best Integer    Best Bound    ItCnt     Gap

*     0+    0                           87.0000        8.0000            90.80%
*     0+    0                           80.0000        8.0000            90.00%
      0     0        8.0000     8       80.0000        8.0000     5560   90.00%
*     0+    0                           34.0000        8.0000            76.47%
      0     0        8.0302    18       34.0000      Cuts: 48     5678   76.38%
*     0+    0                           32.0000        8.0302            74.91%
      0     0       11.0000     8       32.0000     Cuts: 134     5697   65.62%
*     0+    0                           27.0000       11.0000            59.26%
*     0+    0                           22.0000       11.0000            50.00%
      0     0       11.0000     1       22.0000   MIRcuts: 34     5705   50.00%
*     0+    0                           11.0000       11.0000             0.00%
      0     0        cutoff             11.0000       11.0000     5705    0.00%
Elapsed time = 0.33 sec. (1099.40 ticks, tree = 0.01 MB, solutions = 7)

Clique cuts applied:  21
Implied bound cuts applied:  47
Mixed integer rounding cuts applied:  28

Root node processing (before b&c):
  Real time             =    0.34 sec. (1100.12 ticks)
Parallel b&c, 4 threads:
  Real time             =    0.00 sec. (0.00 ticks)
  Sync time (average)   =    0.00 sec.
  Wait time (average)   =    0.00 sec.
                          ------------
Total (root+branch&cut) =    0.34 sec. (1100.12 ticks)

Solution pool: 7 solutions saved.

MIP - Integer optimal solution:  Objective =  1.1000000000e+01
Solution time =    0.34 sec.  Iterations = 5705  Nodes = 0
Deterministic time = 1100.14 ticks  (3271.70 ticks/sec)


Incumbent solution written to file 'results/InstanceA1_bigm_finsteps123.sol'.

Log started (V22.2.0.0) Tue Jun  9 08:32:44 2026

New value for time limit in seconds: 60
New value for default parallel thread count: 4
New value for mixed integer optimality gap tolerance: 0.001
New value for level of mixed integer node display: 2

Problem 'results/InstanceA1_bigm_finsteps123.lp' read.
Read time = 0.01 sec. (1.27 ticks)
Version identifier: 22.2.0.0 | 2026-05-04 | 5dff98e58
CPXPARAM_Threads                                 4
CPXPARAM_TimeLimit                               60
CPXPARAM_MIP_Tolerances_MIPGap                   0.001
Tried aggregator 2 times.
MIP Presolve eliminated 37 rows and 37 columns.
MIP Presolve modified 134871 coefficients.
Aggregator did 607 substitutions.
Reduced MIP has 12487 rows, 6601 columns, and 36804 nonzeros.
Reduced MIP has 5994 binaries, 0 generals, 0 SOSs, and 0 indicators.
Presolve time = 0.04 sec. (61.13 ticks)
Found incumbent of value 87.000000 after 0.08 sec. (114.60 ticks)
Probing time = 0.01 sec. (6.01 ticks)
Tried aggregator 1 time.
Detecting symmetries...
MIP Presolve modified 43 coefficients.
Reduced MIP has 12487 rows, 6601 columns, and 36804 nonzeros.
Reduced MIP has 5994 binaries, 0 generals, 0 SOSs, and 0 indicators.
Presolve time = 0.01 sec. (20.40 ticks)
Probing time = 0.00 sec. (5.61 ticks)
Clique table members: 2175.
MIP emphasis: balance optimality and feasibility.
MIP search method: dynamic search.
Parallel mode: deterministic, using up to 4 threads.
Root relaxation solution time = 0.09 sec. (697.34 ticks)

        Nodes                                         Cuts/
   Node  Left     Objective  IInf  Best Integer    Best Bound    ItCnt     Gap

*     0+    0                           87.0000        8.0000            90.80%
*     0+    0                           80.0000        8.0000            90.00%
      0     0        8.0000     8       80.0000        8.0000     5560   90.00%
*     0+    0                           34.0000        8.0000            76.47%
      0     0        8.0302    18       34.0000      Cuts: 48     5678   76.38%
*     0+    0                           32.0000        8.0302            74.91%
      0     0       11.0000     8       32.0000     Cuts: 134     5697   65.62%
*     0+    0                           27.0000       11.0000            59.26%
*     0+    0                           22.0000       11.0000            50.00%
      0     0       11.0000     1       22.0000   MIRcuts: 34     5705   50.00%
*     0+    0                           11.0000       11.0000             0.00%
      0     0        cutoff             11.0000       11.0000     5705    0.00%
Elapsed time = 0.32 sec. (1099.40 ticks, tree = 0.01 MB, solutions = 7)

Clique cuts applied:  21
Implied bound cuts applied:  47
Mixed integer rounding cuts applied:  28

Root node processing (before b&c):
  Real time             =    0.32 sec. (1100.12 ticks)
Parallel b&c, 4 threads:
  Real time             =    0.00 sec. (0.00 ticks)
  Sync time (average)   =    0.00 sec.
  Wait time (average)   =    0.00 sec.
                          ------------
Total (root+branch&cut) =    0.32 sec. (1100.12 ticks)

Solution pool: 7 solutions saved.

MIP - Integer optimal solution:  Objective =  1.1000000000e+01
Solution time =    0.32 sec.  Iterations = 5705  Nodes = 0
Deterministic time = 1100.14 ticks  (3388.98 ticks/sec)


Incumbent solution written to file 'results/InstanceA1_bigm_finsteps123.sol'.

Log started (V22.2.0.0) Tue Jun  9 08:33:01 2026

New value for time limit in seconds: 120
New value for default parallel thread count: 4
New value for mixed integer optimality gap tolerance: 0.001
New value for level of mixed integer node display: 2

Problem 'results/InstanceA1_bigm_finsteps123.lp' read.
Read time = 0.01 sec. (1.27 ticks)
Version identifier: 22.2.0.0 | 2026-05-04 | 5dff98e58
CPXPARAM_Threads                                 4
CPXPARAM_TimeLimit                               120
CPXPARAM_MIP_Tolerances_MIPGap                   0.001
Tried aggregator 2 times.
MIP Presolve eliminated 37 rows and 37 columns.
MIP Presolve modified 134871 coefficients.
Aggregator did 607 substitutions.
Reduced MIP has 12487 rows, 6601 columns, and 36804 nonzeros.
Reduced MIP has 5994 binaries, 0 generals, 0 SOSs, and 0 indicators.
Presolve time = 0.04 sec. (61.13 ticks)
Found incumbent of value 87.000000 after 0.08 sec. (114.60 ticks)
Probing time = 0.01 sec. (6.01 ticks)
Tried aggregator 1 time.
Detecting symmetries...
MIP Presolve modified 43 coefficients.
Reduced MIP has 12487 rows, 6601 columns, and 36804 nonzeros.
Reduced MIP has 5994 binaries, 0 generals, 0 SOSs, and 0 indicators.
Presolve time = 0.01 sec. (20.40 ticks)
Probing time = 0.00 sec. (5.61 ticks)
Clique table members: 2175.
MIP emphasis: balance optimality and feasibility.
MIP search method: dynamic search.
Parallel mode: deterministic, using up to 4 threads.
Root relaxation solution time = 0.09 sec. (697.34 ticks)

        Nodes                                         Cuts/
   Node  Left     Objective  IInf  Best Integer    Best Bound    ItCnt     Gap

*     0+    0                           87.0000        8.0000            90.80%
*     0+    0                           80.0000        8.0000            90.00%
      0     0        8.0000     8       80.0000        8.0000     5560   90.00%
*     0+    0                           34.0000        8.0000            76.47%
      0     0        8.0302    18       34.0000      Cuts: 48     5678   76.38%
*     0+    0                           32.0000        8.0302            74.91%
      0     0       11.0000     8       32.0000     Cuts: 134     5697   65.62%
*     0+    0                           27.0000       11.0000            59.26%
*     0+    0                           22.0000       11.0000            50.00%
      0     0       11.0000     1       22.0000   MIRcuts: 34     5705   50.00%
*     0+    0                           11.0000       11.0000             0.00%
      0     0        cutoff             11.0000       11.0000     5705    0.00%
Elapsed time = 0.33 sec. (1099.40 ticks, tree = 0.01 MB, solutions = 7)

Clique cuts applied:  21
Implied bound cuts applied:  47
Mixed integer rounding cuts applied:  28

Root node processing (before b&c):
  Real time             =    0.33 sec. (1100.12 ticks)
Parallel b&c, 4 threads:
  Real time             =    0.00 sec. (0.00 ticks)
  Sync time (average)   =    0.00 sec.
  Wait time (average)   =    0.00 sec.
                          ------------
Total (root+branch&cut) =    0.33 sec. (1100.12 ticks)

Solution pool: 7 solutions saved.

MIP - Integer optimal solution:  Objective =  1.1000000000e+01
Solution time =    0.33 sec.  Iterations = 5705  Nodes = 0
Deterministic time = 1100.14 ticks  (3368.09 ticks/sec)


Incumbent solution written to file 'results/InstanceA1_bigm_finsteps123.sol'.

Log started (V22.2.0.0) Tue Jun  9 08:57:56 2026

New value for time limit in seconds: 60
New value for default parallel thread count: 4
New value for mixed integer optimality gap tolerance: 0.001
New value for level of mixed integer node display: 2

Problem 'results/InstanceA1_bigm_finsteps123.lp' read.
Read time = 0.01 sec. (1.27 ticks)
Version identifier: 22.2.0.0 | 2026-05-04 | 5dff98e58
CPXPARAM_Threads                                 4
CPXPARAM_TimeLimit                               60
CPXPARAM_MIP_Tolerances_MIPGap                   0.001
Tried aggregator 2 times.
MIP Presolve eliminated 37 rows and 37 columns.
MIP Presolve modified 134871 coefficients.
Aggregator did 607 substitutions.
Reduced MIP has 12487 rows, 6601 columns, and 36804 nonzeros.
Reduced MIP has 5994 binaries, 0 generals, 0 SOSs, and 0 indicators.
Presolve time = 0.04 sec. (61.13 ticks)
Found incumbent of value 87.000000 after 0.08 sec. (114.60 ticks)
Probing time = 0.01 sec. (6.01 ticks)
Tried aggregator 1 time.
Detecting symmetries...
MIP Presolve modified 43 coefficients.
Reduced MIP has 12487 rows, 6601 columns, and 36804 nonzeros.
Reduced MIP has 5994 binaries, 0 generals, 0 SOSs, and 0 indicators.
Presolve time = 0.01 sec. (20.40 ticks)
Probing time = 0.00 sec. (5.61 ticks)
Clique table members: 2175.
MIP emphasis: balance optimality and feasibility.
MIP search method: dynamic search.
Parallel mode: deterministic, using up to 4 threads.
Root relaxation solution time = 0.09 sec. (697.34 ticks)

        Nodes                                         Cuts/
   Node  Left     Objective  IInf  Best Integer    Best Bound    ItCnt     Gap

*     0+    0                           87.0000        8.0000            90.80%
*     0+    0                           80.0000        8.0000            90.00%
      0     0        8.0000     8       80.0000        8.0000     5560   90.00%
*     0+    0                           34.0000        8.0000            76.47%
      0     0        8.0302    18       34.0000      Cuts: 48     5678   76.38%
*     0+    0                           32.0000        8.0302            74.91%
      0     0       11.0000     8       32.0000     Cuts: 134     5697   65.62%
*     0+    0                           27.0000       11.0000            59.26%
*     0+    0                           22.0000       11.0000            50.00%
      0     0       11.0000     1       22.0000   MIRcuts: 34     5705   50.00%
*     0+    0                           11.0000       11.0000             0.00%
      0     0        cutoff             11.0000       11.0000     5705    0.00%
Elapsed time = 0.33 sec. (1099.40 ticks, tree = 0.01 MB, solutions = 7)

Clique cuts applied:  21
Implied bound cuts applied:  47
Mixed integer rounding cuts applied:  28

Root node processing (before b&c):
  Real time             =    0.33 sec. (1100.12 ticks)
Parallel b&c, 4 threads:
  Real time             =    0.00 sec. (0.00 ticks)
  Sync time (average)   =    0.00 sec.
  Wait time (average)   =    0.00 sec.
                          ------------
Total (root+branch&cut) =    0.33 sec. (1100.12 ticks)

Solution pool: 7 solutions saved.

MIP - Integer optimal solution:  Objective =  1.1000000000e+01
Solution time =    0.33 sec.  Iterations = 5705  Nodes = 0
Deterministic time = 1100.14 ticks  (3307.08 ticks/sec)


Incumbent solution written to file 'results/InstanceA1_bigm_finsteps123.sol'.
